webassembly/ejemplos_dzn/folder15_json_37.dzn
TERM = { '.', 's(2)', 's(5)', 's(4)', 'in_1', 'local_0', 'local_1', 'in_6', 'in_2', 'in_4', 'in_3', 's(1)', 's(0)', 'in_7', 'in_5', 's(3)', 'in_0'};
null = '.';
s = 15;
n = 13;
ndeps = 9;
max_registers_sz = 4;
NR = 1;
registers = [|'local_0', 'in_7'|];
dependencies = [|'call[function_index(0)]_0', 'i32.store8_2', |'i32.store8_2', 'i32.load16_u_4', |'i32.load16_u_4', 'i32.store8_7', |'i32.store8_7', 'i32.load8_s_9', |'i32.load8_s_9', 'i32.store16_10', |'i32.store16_10', 'i32.load_11', |'i32.store16_10', 'i32.load16_s_12', |'i32.load_11', 'i32.store8_13', |'i32.load16_s_12', 'i32.store8_13'|];
GET_ENUM = { GET1, GET2, GET3, GET4, GET5};
SET_ENUM = { SET1, SET2, SET3, SET4, SET5};
TEE_ENUM = { TEE1, TEE2, TEE3, TEE4, TEE5};
N = 10;
OP = { 'call[function_index(0)]_0', 'i32.store8_2', 'i32.load16_u_4', 'i32.store8_7', 'i32.load8_s_9', 'i32.store16_10', 'i32.load_11', 'i32.load16_s_12', 'i32.store8_13', 'local.get_0' };
in_ops = [3, 2, 1, 2, 1, 2, 1, 1, 2, 0 ];
out_ops = [2, 0, 1, 0, 1, 0, 1, 1, 0, 1 ];
in1 = ['in_0', 's(1)', 'in_3', 's(2)', 'local_1', 's(3)', 'in_5', 's(4)', 's(5)', '.' ];
in2 = ['in_1', 's(0)', '.', 's(2)', '.', 'in_4', '.', '.', 'in_6', '.' ];
in3 = ['in_2', '.', '.', '.', '.', '.', '.', '.', '.', '.' ];
out1 = ['s(1)', '.', 's(2)', '.', 's(3)', '.', 's(4)', 's(5)', '.', 'local_1' ];
out2 = ['s(0)', '.', '.', '.', '.', '.', '.', '.', '.', '.' ];
out3 = ['.', '.', '.', '.', '.', '.', '.', '.', '.', '.' ];
comm = [false, false, false, false, false, false, false, false, false, false ];
gas = [1, 1, 1, 1, 1, 1, 1, 1, 1, 1 ];
sz = [1, 1, 1, 1, 1, 1, 1, 1, 1, 1 ];
stor = [true, true, false, true, false, true, false, false, true, false ];
lb = [ 1, 1, 1, 1, 1, 1, 1, 1, 1, 1 ];
ub = [ 15, 15, 15, 15, 15, 15, 15, 15, 15, 15 ];
startstack = [ 'in_0', 'in_1', 'in_2', 'in_3', 'in_4', 'in_5', 'in_6', 'in_7', null, null, null, null, null ];
endstack = [ 'in_7', null, null, null, null, null, null, null, null, null, null, null, null ];
